p edge 49 476
e 1 9 1
e 1 17 1
e 1 25 1
e 1 33 1
e 1 41 1
e 1 49 1
e 1 2 1
e 1 3 1
e 1 4 1
e 1 5 1
e 1 6 1
e 1 7 1
e 1 8 1
e 1 15 1
e 1 22 1
e 1 29 1
e 1 36 1
e 1 43 1
e 2 10 1
e 2 18 1
e 2 26 1
e 2 34 1
e 2 42 1
e 2 8 1
e 2 3 1
e 2 4 1
e 2 5 1
e 2 6 1
e 2 7 1
e 2 9 1
e 2 16 1
e 2 23 1
e 2 30 1
e 2 37 1
e 2 44 1
e 3 11 1
e 3 19 1
e 3 27 1
e 3 35 1
e 3 9 1
e 3 15 1
e 3 4 1
e 3 5 1
e 3 6 1
e 3 7 1
e 3 10 1
e 3 17 1
e 3 24 1
e 3 31 1
e 3 38 1
e 3 45 1
e 4 12 1
e 4 20 1
e 4 28 1
e 4 10 1
e 4 16 1
e 4 22 1
e 4 5 1
e 4 6 1
e 4 7 1
e 4 11 1
e 4 18 1
e 4 25 1
e 4 32 1
e 4 39 1
e 4 46 1
e 5 13 1
e 5 21 1
e 5 11 1
e 5 17 1
e 5 23 1
e 5 29 1
e 5 6 1
e 5 7 1
e 5 12 1
e 5 19 1
e 5 26 1
e 5 33 1
e 5 40 1
e 5 47 1
e 6 14 1
e 6 12 1
e 6 18 1
e 6 24 1
e 6 30 1
e 6 36 1
e 6 7 1
e 6 13 1
e 6 20 1
e 6 27 1
e 6 34 1
e 6 41 1
e 6 48 1
e 7 13 1
e 7 19 1
e 7 25 1
e 7 31 1
e 7 37 1
e 7 43 1
e 7 14 1
e 7 21 1
e 7 28 1
e 7 35 1
e 7 42 1
e 7 49 1
e 8 16 1
e 8 24 1
e 8 32 1
e 8 40 1
e 8 48 1
e 8 9 1
e 8 10 1
e 8 11 1
e 8 12 1
e 8 13 1
e 8 14 1
e 8 15 1
e 8 22 1
e 8 29 1
e 8 36 1
e 8 43 1
e 9 17 1
e 9 25 1
e 9 33 1
e 9 41 1
e 9 49 1
e 9 15 1
e 9 10 1
e 9 11 1
e 9 12 1
e 9 13 1
e 9 14 1
e 9 16 1
e 9 23 1
e 9 30 1
e 9 37 1
e 9 44 1
e 10 18 1
e 10 26 1
e 10 34 1
e 10 42 1
e 10 16 1
e 10 22 1
e 10 11 1
e 10 12 1
e 10 13 1
e 10 14 1
e 10 17 1
e 10 24 1
e 10 31 1
e 10 38 1
e 10 45 1
e 11 19 1
e 11 27 1
e 11 35 1
e 11 17 1
e 11 23 1
e 11 29 1
e 11 12 1
e 11 13 1
e 11 14 1
e 11 18 1
e 11 25 1
e 11 32 1
e 11 39 1
e 11 46 1
e 12 20 1
e 12 28 1
e 12 18 1
e 12 24 1
e 12 30 1
e 12 36 1
e 12 13 1
e 12 14 1
e 12 19 1
e 12 26 1
e 12 33 1
e 12 40 1
e 12 47 1
e 13 21 1
e 13 19 1
e 13 25 1
e 13 31 1
e 13 37 1
e 13 43 1
e 13 14 1
e 13 20 1
e 13 27 1
e 13 34 1
e 13 41 1
e 13 48 1
e 14 20 1
e 14 26 1
e 14 32 1
e 14 38 1
e 14 44 1
e 14 21 1
e 14 28 1
e 14 35 1
e 14 42 1
e 14 49 1
e 15 23 1
e 15 31 1
e 15 39 1
e 15 47 1
e 15 16 1
e 15 17 1
e 15 18 1
e 15 19 1
e 15 20 1
e 15 21 1
e 15 22 1
e 15 29 1
e 15 36 1
e 15 43 1
e 16 24 1
e 16 32 1
e 16 40 1
e 16 48 1
e 16 22 1
e 16 17 1
e 16 18 1
e 16 19 1
e 16 20 1
e 16 21 1
e 16 23 1
e 16 30 1
e 16 37 1
e 16 44 1
e 17 25 1
e 17 33 1
e 17 41 1
e 17 49 1
e 17 23 1
e 17 29 1
e 17 18 1
e 17 19 1
e 17 20 1
e 17 21 1
e 17 24 1
e 17 31 1
e 17 38 1
e 17 45 1
e 18 26 1
e 18 34 1
e 18 42 1
e 18 24 1
e 18 30 1
e 18 36 1
e 18 19 1
e 18 20 1
e 18 21 1
e 18 25 1
e 18 32 1
e 18 39 1
e 18 46 1
e 19 27 1
e 19 35 1
e 19 25 1
e 19 31 1
e 19 37 1
e 19 43 1
e 19 20 1
e 19 21 1
e 19 26 1
e 19 33 1
e 19 40 1
e 19 47 1
e 20 28 1
e 20 26 1
e 20 32 1
e 20 38 1
e 20 44 1
e 20 21 1
e 20 27 1
e 20 34 1
e 20 41 1
e 20 48 1
e 21 27 1
e 21 33 1
e 21 39 1
e 21 45 1
e 21 28 1
e 21 35 1
e 21 42 1
e 21 49 1
e 22 30 1
e 22 38 1
e 22 46 1
e 22 23 1
e 22 24 1
e 22 25 1
e 22 26 1
e 22 27 1
e 22 28 1
e 22 29 1
e 22 36 1
e 22 43 1
e 23 31 1
e 23 39 1
e 23 47 1
e 23 29 1
e 23 24 1
e 23 25 1
e 23 26 1
e 23 27 1
e 23 28 1
e 23 30 1
e 23 37 1
e 23 44 1
e 24 32 1
e 24 40 1
e 24 48 1
e 24 30 1
e 24 36 1
e 24 25 1
e 24 26 1
e 24 27 1
e 24 28 1
e 24 31 1
e 24 38 1
e 24 45 1
e 25 33 1
e 25 41 1
e 25 49 1
e 25 31 1
e 25 37 1
e 25 43 1
e 25 26 1
e 25 27 1
e 25 28 1
e 25 32 1
e 25 39 1
e 25 46 1
e 26 34 1
e 26 42 1
e 26 32 1
e 26 38 1
e 26 44 1
e 26 27 1
e 26 28 1
e 26 33 1
e 26 40 1
e 26 47 1
e 27 35 1
e 27 33 1
e 27 39 1
e 27 45 1
e 27 28 1
e 27 34 1
e 27 41 1
e 27 48 1
e 28 34 1
e 28 40 1
e 28 46 1
e 28 35 1
e 28 42 1
e 28 49 1
e 29 37 1
e 29 45 1
e 29 30 1
e 29 31 1
e 29 32 1
e 29 33 1
e 29 34 1
e 29 35 1
e 29 36 1
e 29 43 1
e 30 38 1
e 30 46 1
e 30 36 1
e 30 31 1
e 30 32 1
e 30 33 1
e 30 34 1
e 30 35 1
e 30 37 1
e 30 44 1
e 31 39 1
e 31 47 1
e 31 37 1
e 31 43 1
e 31 32 1
e 31 33 1
e 31 34 1
e 31 35 1
e 31 38 1
e 31 45 1
e 32 40 1
e 32 48 1
e 32 38 1
e 32 44 1
e 32 33 1
e 32 34 1
e 32 35 1
e 32 39 1
e 32 46 1
e 33 41 1
e 33 49 1
e 33 39 1
e 33 45 1
e 33 34 1
e 33 35 1
e 33 40 1
e 33 47 1
e 34 42 1
e 34 40 1
e 34 46 1
e 34 35 1
e 34 41 1
e 34 48 1
e 35 41 1
e 35 47 1
e 35 42 1
e 35 49 1
e 36 44 1
e 36 37 1
e 36 38 1
e 36 39 1
e 36 40 1
e 36 41 1
e 36 42 1
e 36 43 1
e 37 45 1
e 37 43 1
e 37 38 1
e 37 39 1
e 37 40 1
e 37 41 1
e 37 42 1
e 37 44 1
e 38 46 1
e 38 44 1
e 38 39 1
e 38 40 1
e 38 41 1
e 38 42 1
e 38 45 1
e 39 47 1
e 39 45 1
e 39 40 1
e 39 41 1
e 39 42 1
e 39 46 1
e 40 48 1
e 40 46 1
e 40 41 1
e 40 42 1
e 40 47 1
e 41 49 1
e 41 47 1
e 41 42 1
e 41 48 1
e 42 48 1
e 42 49 1
e 43 44 1
e 43 45 1
e 43 46 1
e 43 47 1
e 43 48 1
e 43 49 1
e 44 45 1
e 44 46 1
e 44 47 1
e 44 48 1
e 44 49 1
e 45 46 1
e 45 47 1
e 45 48 1
e 45 49 1
e 46 47 1
e 46 48 1
e 46 49 1
e 47 48 1
e 47 49 1
e 48 49 1